CMD:
./solvers/bin/cadical --plain --no-reduce -t 1600 ./data/cnfs//cal118/cal118.35.cnf

c --- [ banner ] -------------------------------------------------------------
c 
c CaDiCaL SAT Solver
c Copyright (c) 2016-2024
c A. Biere, M. Fleury, N. Froleyks, K. Fazekas, F. Pollitt, T. Faller
c JKU Linz, University of Freiburg, TU Wien
c 
c Version 2.1.3 5296d3d2a9bf48c154ab2acb5e44625776d821bf
c g++ (Gentoo 12.3.1_p20230526 p2) 12.3.1 20230526 -Wall -Wextra -O3 -DNDEBUG
c Sat Aug 9 07:26:21 PDT 2025 Linux cedar2.int.cedar.computecanada.ca 5.14.0-362.24.2.el9_3.x86_64 x86_64
c 
c --- [ limit ] --------------------------------------------------------------
c 
c setting time limit to 1600 seconds real time (due to '-t 1600')
c 
c --- [ parsing input ] ------------------------------------------------------
c 
c reading DIMACS file from './data/cnfs//cal118/cal118.35.cnf'
c opening file to read './data/cnfs//cal118/cal118.35.cnf'
c found 'p cnf 972251 2762710' header
c parsed 2762710 clauses in 0.45 seconds process time
c 
c --- [ options ] ------------------------------------------------------------
c 
c   --compact=false                (different from default 'true')
c   --decompose=false              (different from default 'true')
c   --deduplicate=false            (different from default 'true')
c   --elim=false                   (different from default 'true')
c   --probe=false                  (different from default 'true')
c   --reduce=false                 (different from default 'true')
c   --subsume=false                (different from default 'true')
c   --ternary=false                (different from default 'true')
c   --transred=false               (different from default 'true')
c   --vivify=false                 (different from default 'true')
c 
c --- [ solving ] ------------------------------------------------------------
c 
c time measured in process time since initialization
c 
c  seconds   reductions  redundant   irredundant
c          MB    restarts       trail        variables
c           level   conflicts       glue           remaining
c 
c *  0.45 414  0 0   0    0    0  0% 0 2571963 929405 96%
c {  0.46 415  0 0   0    0    0  0% 0 2571963 929405 96%
c i  0.48 415 975 0   1  211  176  7% 3 2571963 929401 96%
c i  0.50 416 1059 0   7  267  228  7% 3 2571963 929396 96%
c i  0.51 416 1198 0   7  276  235  7% 3 2571963 929392 96%
c i  0.52 417 1375 0   7  285  242  7% 3 2571963 929388 96%
c i  0.53 417 1587 0   7  294  249  8% 3 2571963 929384 96%
c i  0.54 417 1830 0   7  303  256  8% 3 2571963 929380 96%
c i  0.55 417 2102 0   7  312  263  9% 3 2571963 929376 96%
c i  0.56 418 2400 0   7  321  270  9% 3 2571963 929372 96%
c i  0.56 418 2721 0   7  330  277 10% 3 2571963 929368 96%
c i  0.57 419 3064 0   7  339  284 10% 3 2571963 929364 96%
c i  0.58 419 3427 0   7  348  291 11% 3 2571963 929360 96%
c i  0.59 419 3808 0   7  357  298 12% 3 2571963 929356 96%
c i  0.60 419 4207 0   7  366  305 12% 3 2571963 929352 96%
c i  0.61 419 4621 0   7  375  312 13% 3 2571963 929348 96%
c i  0.62 419 5050 0   7  384  319 14% 3 2571963 929344 96%
c i  0.63 420 5492 0   7  393  326 15% 3 2571963 929340 96%
c i  0.64 420 5947 0   7  402  333 16% 3 2571963 929336 96%
c i  0.64 424 6413 0   7  411  340 16% 3 2571963 929332 96%
c 
c  seconds     reductions  redundant   irredundant
c          MB      restarts       trail        variables
c            level    conflicts       glue           remaining
c 
c i  0.65 424 6891 0   7  420  347 17% 3 2571963 929328 96%
c i  0.66 424 7378 0   7  429  354 18% 3 2571963 929324 96%
c i  0.67 424 7876 0   7  438  361 19% 3 2571963 929320 96%
c i  0.68 424 8382 0   7  447  368 20% 3 2571963 929316 96%
c i  0.69 424 8897 0   7  456  375 21% 3 2571963 929312 96%
c i  0.70 424 9419 0   7  465  382 22% 3 2571963 929308 96%
c i  0.71 424 9950 0   7  474  389 23% 3 2571963 929304 96%
c i  0.72 424 10487 0   7  483  396 24% 3 2571963 929300 96%
c i  0.73 424 11031 0   7  492  403 25% 3 2571963 929296 96%
c i  0.74 424 11581 0   7  501  410 26% 3 2571963 929292 96%
c i  0.76 424 12137 0   7  510  417 27% 3 2571963 929288 96%
c i  0.77 424 12698 0   7  519  424 28% 3 2571963 929284 96%
c i  0.78 424 13265 0   7  528  431 29% 3 2571963 929280 96%
c i  0.79 424 13837 0   7  537  438 30% 3 2571963 929276 96%
c i  0.80 424 14414 0   7  546  445 31% 3 2571963 929272 96%
c }  1.11 427 15612 0  17 1000  864 37% 3 2571963 929240 96%
c [  1.11 427  0 0  17 1000  864  0% 0 2571963 929240 96%
c O  1.13 427 1418 0  17 1002  866  7% 1 2571963 929240 96%
c i  1.44 428 32540 0  17 2010 1777 73% 5 2571963 929237 96%
c ]  6.04 429 18758 0  18 3001 2378 59% 13 2571963 929237 96%
c 
c  seconds      reductions  redundant   irredundant
c          MB       restarts       trail        variables
c             level    conflicts       glue           remaining
c 
c {  6.04 429 15612 0  18 3001 2378 37% 3 2571963 929237 96%
c F  6.11 429 15581 0  19 3003 2380 37% 3 2571963 929237 96%
c i  6.79 429 13307 0  43 3173 2548 37% 3 2571963 929236 96%
c i  6.80 429 13296 0  43 3174 2548 37% 3 2571963 929235 96%
... skipped 367 lines ...
c   seconds     reductions         redundant     irredundant
c            MB      restarts              trail         variables
c              level       conflicts           glue            remaining
c 
c B 1216.81 835 152 0 65297 1540121 1371430 19% 12 2517441 926985 95%
c i 1233.19 839 149 0 66327 1553981 1383841 19% 12 2517441 926982 95%
c i 1237.66 840 152 0 66505 1558486 1387839 19% 12 2517441 926979 95%
c i 1255.44 847 149 0 67689 1576505 1403954 19% 12 2517441 926976 95%
c W 1273.87 873 145 0 69079 1596122 1421472 18% 12 2517258 926976 95%
c i 1285.26 873 146 0 69635 1607398 1431228 19% 12 2517258 926973 95%
c i 1290.30 873 146 0 69939 1610934 1434510 19% 12 2517258 926970 95%
c i 1313.44 873 143 0 71968 1631478 1452366 19% 12 2517258 926967 95%
c i 1317.59 873 142 0 72191 1634228 1454877 19% 12 2517258 926965 95%
c i 1337.16 874 149 0 73448 1652257 1470816 19% 12 2517258 926962 95%
c # 1339.37 874 149 0 73609 1653123 1471632 19% 12 2517258 926962 95%
c i 1347.75 874 147 0 74300 1657690 1475712 19% 12 2517258 926959 95%
c i 1403.80 876 141 0 78243 1703322 1515971 19% 12 2517258 926956 95%
c i 1413.19 878 143 0 78675 1708875 1520908 20% 12 2517258 926953 95%
c i 1414.01 878 144 0 78681 1710682 1522575 20% 12 2517258 926950 95%
c i 1414.17 879 146 0 78681 1711060 1522935 20% 12 2517258 926947 95%
c B 1414.27 879 146 0 78681 1711124 1522996 20% 12 2517258 926947 95%
c i 1435.16 885 157 0 80106 1732801 1542676 20% 12 2517258 926944 95%
c i 1435.18 885 157 0 80106 1732894 1542764 20% 12 2517258 926941 95%
c i 1435.57 885 157 0 80106 1733308 1543138 20% 12 2517258 926938 95%
c 
c   seconds     reductions         redundant     irredundant
c            MB      restarts              trail         variables
c              level       conflicts           glue            remaining
c 
c i 1444.31 887 160 0 80695 1740075 1549228 20% 12 2517258 926936 95%
c i 1463.53 891 157 0 81758 1755588 1563061 20% 12 2517258 926933 95%
c i 1463.55 891 157 0 81758 1755758 1563217 20% 12 2517258 926930 95%
c i 1464.18 891 157 0 81802 1756610 1563980 20% 12 2517258 926926 95%
c i 1473.18 893 158 0 82360 1763138 1569900 20% 12 2517258 926923 95%
c W 1480.24 918 156 0 82516 1770127 1576035 20% 12 2517081 926923 95%
c i 1481.45 918 156 0 82534 1771030 1576861 20% 12 2517081 926920 95%
c i 1497.53 918 152 0 83735 1779290 1584220 20% 12 2517081 926917 95%
c i 1506.27 918 150 0 84373 1785793 1590009 20% 12 2517081 926914 95%
c i 1506.39 918 151 0 84373 1785941 1590149 20% 12 2517081 926911 95%
c i 1530.51 918 146 0 86236 1803742 1605756 19% 12 2517081 926909 95%
c i 1530.56 918 146 0 86238 1803824 1605833 19% 12 2517081 926906 95%
c i 1561.21 918 143 0 88152 1827381 1626691 19% 12 2517081 926903 95%
c i 1561.28 918 143 0 88154 1827429 1626732 19% 12 2517081 926900 95%
c F 1564.11 918 144 0 88267 1830128 1629117 20% 12 2517081 926900 95%
c } 1588.88 918 139 0 90229 1849855 1646209 19% 12 2517081 926900 95%
c ? 1588.88 918 139 0 90229 1849855 1646209 19% 12 2517081 926900 95%
c 
c --- [ result ] -------------------------------------------------------------
c 
c UNKNOWN
c 
c --- [ run-time profiling ] -------------------------------------------------
c 
c process time taken by individual solving procedures
c (percentage relative to process time for solving)
c 
c      1588.43  100.00% search
c      1217.34   76.64% unstable
c       357.81   22.53% stable
c        13.26    0.83% walk
c         0.45    0.03% parse
c         0.01    0.00% lucky
c         0.00    0.00% simplify
c   =================================
c      1588.43   99.97% solve
c 
c last line shows process time for solving
c (percentage relative to total process time)
c 
c --- [ statistics ] ---------------------------------------------------------
c 
c chronological:            808966        43.73 %  of conflicts
c conflicts:               1849855      1164.58    per second
c decisions:              13415754      8445.94    per second
c fixed:                     45350         4.66 %  of all variables
c learned:                 1778667        96.15 %  per conflict
c learned_lits:          154702240       100.00 %  learned literals
c minimized:                     0         0.00 %  learned literals
c shrunken:               50033266        32.34 %  learned literals
c minishrunken:           28346584        18.32 %  learned literals
c otfs:                       8036         0.43 %  of conflict
c propagations:        14775982417         9.30 M  per second
c rephased:                     60     30830.92    interval
c restarts:                  90229        20.50    interval
c stabilizing:                   5        36.85 %  of conflicts
c subsumed:                 132030         3.03 %  of all clauses
c strengthened:               7679         0.18 %  of all clauses
c walked:                       19     97360.79    interval
c 
c seconds are measured in process time for solving
c 
c --- [ resources ] ----------------------------------------------------------
c 
c total process time since initialization:      1588.88    seconds
c total real time since initialization:         1600.01    seconds
c maximum resident set size of process:         1276.84    MB
c 
c --- [ shutting down ] ------------------------------------------------------
c 
c exit 0
